(declare-const a Real)
(declare-const b Real)
(declare-const c Real)
(assert (= (+ a b c) 3))
(assert (> a 0))
(assert (> b 0))
(assert (> c 0))
(assert (not (<= (+ 48 (pow (+ 4 (pow (+ a b c) 2)) 2) (* -12 (pow 2 (/ 1 2)) (pow (+ (* 192 (pow a 2)) (* 192 (pow b 2)) (* 192 (pow c 2)) (* 96 a b) (* 96 a c) (* 96 b c)) (pow 2 -1)))) 0)))
(check-sat)
(get-model)
(exit)